50
10714

218 739
855 882
38 569
28 253
580 980
112 611
260 878
708 624
765 666
565 483
359 14
849 321
232 351
678 894
114 940
302 429
625 881
404 303
302 621
135 75
262 221
925 394
746 781
816 209
189 563
274 364
549 44
743 960
230 884
398 266
726 620
396 413
257 738
736 485
987 276
551 458
377 921
537 651
773 917
443 225
63 704
842 665
172 535
720 624
667 568
818 372
341 445
805 81
5 857
95 893
